# Objective value = 3.0246113281967541e+02
x[0] 0
x[1] 1
x[2] 0
x[3] 0
x[4] 0
x[5] 0
x[6] 1
x[7] 0
x[8] 1
x[9] 1
x[10] 1
x[11] 1
x[12] 1
x[13] 0
x[14] 1
x[15] 1
x[16] 1
x[17] 0
x[18] 0
x[19] 0
x[20] 1
x[21] 0
x[22] 0
x[23] 0
x[24] 1
x[25] 1
x[26] 1
x[27] 1
x[28] 0
x[29] 1
x[30] 0
x[31] 0
x[32] 0
x[33] 1
x[34] 1
x[35] 1
x[36] 0
x[37] 0
x[38] 1
x[39] 1
x[40] 1
x[41] 1
x[42] 1
x[43] 0
x[44] 1
x[45] 0
x[46] 1
x[47] 1
x[48] 1
x[49] 1
x[50] 1
x[51] 0
x[52] 1
x[53] 0
x[54] 1
x[55] 0
x[56] 0
x[57] 0
x[58] 1
x[59] 1
x[60] 1
x[61] 1
x[62] 0
x[63] 0
x[64] 0
x[65] 1
x[66] 1
x[67] 1
x[68] 1
x[69] 1
x[70] 1
x[71] 1
x[72] 1
x[73] 0
x[74] 1
x[75] 0
x[76] 1
x[77] 1
x[78] 1
x[79] 1
x[80] 0
x[81] 1
x[82] 1
x[83] 1
x[84] 0
x[85] 0
x[86] 0
x[87] 0
x[88] 1
x[89] 0
x[90] 1
x[91] 0
x[92] 0
x[93] 0
x[94] 0
x[95] 0
x[96] 0
x[97] 0
x[98] 0
x[99] 1
x[100] 1
x[101] 1
x[102] 1
x[103] 1
x[104] 1
x[105] 0
x[106] 0
x[107] 0
x[108] 0
x[109] 1
x[110] 1
x[111] 0
x[112] 1
x[113] 1
x[114] 0
x[115] 0
x[116] 0
x[117] 1
x[118] 1
x[119] 0
x[120] 1
x[121] 0
x[122] 0
x[123] 0
x[124] 1
x[125] 0
x[126] 1
x[127] 1
x[128] 0
x[129] 0
x[130] 0
x[131] 1
x[132] 1
x[133] 1
x[134] 0
x[135] 0
x[136] 1
x[137] 1
x[138] 1
x[139] 0
x[140] 0
x[141] 1
x[142] 0
x[143] 1
x[144] 1
x[145] 0
x[146] 1
x[147] 0
x[148] 0
x[149] 0
x[150] 0
x[151] 1
x[152] 0
x[153] 1
x[154] 0
x[155] 1
x[156] 0
x[157] 1
x[158] 0
x[159] 0
x[160] 0
x[161] 1
x[162] 1
x[163] 1
x[164] 1
x[165] 0
x[166] 0
x[167] 0
x[168] 1
x[169] 0
x[170] 0
x[171] 0
x[172] 1
x[173] 0
x[174] 0
x[175] 1
x[176] 1
x[177] 0
x[178] 1
x[179] 0
x[180] 0
x[181] 1
x[182] 1
x[183] 1
x[184] 0
x[185] 0
x[186] 0
x[187] 1
x[188] 1
x[189] 0
x[190] 1
x[191] 1
x[192] 1
x[193] 0
x[194] 1
x[195] 1
x[196] 0
x[197] 1
x[198] 1
x[199] 0
x[200] 1
x[201] 1
x[202] 1
x[203] 0
x[204] 0
x[205] 0
x[206] 0
x[207] 0
x[208] 0
x[209] 1
x[210] 0
x[211] 1
x[212] 0
x[213] 1
x[214] 1
x[215] 0
x[216] 0
x[217] 0
x[218] 0
x[219] 0
x[220] 1
x[221] 1
x[222] 1
x[223] 1
x[224] 0
x[225] 0
x[226] 1
x[227] 1
x[228] 1
x[229] 0
x[230] 1
x[231] 1
x[232] 1
x[233] 0
x[234] 0
x[235] 1
x[236] 0
x[237] 0
x[238] 0
x[239] 0
x[240] 0
x[241] 1
x[242] 0
x[243] 1
x[244] 0
x[245] 1
x[246] 1
x[247] 0
x[248] 0
x[249] 1
x[250] 1
x[251] 0
x[252] 1
x[253] 0
x[254] 0
x[255] 1
x[256] 0
x[257] 1
x[258] 1
x[259] 1
x[260] 1
x[261] 0
x[262] 1
x[263] 1
x[264] 0
x[265] 0
x[266] 0
x[267] 0
x[268] 0
x[269] 0
x[270] 1
x[271] 1
x[272] 0
x[273] 1
x[274] 0
x[275] 0
x[276] 1
x[277] 1
x[278] 0
x[279] 1
x[280] 1
x[281] 1
x[282] 0
x[283] 0
x[284] 0
x[285] 1
x[286] 1
x[287] 0
x[288] 0
x[289] 0
x[290] 1
x[291] 1
x[292] 0
x[293] 1
x[294] 1
x[295] 0
x[296] 1
x[297] 0
x[298] 0
x[299] 0
x[300] 0
x[301] 0
x[302] 1
x[303] 1
x[304] 0
x[305] 0
x[306] 0
x[307] 1
x[308] 0
x[309] 1
x[310] 1
x[311] 1
x[312] 1
x[313] 1
x[314] 0
x[315] 0
x[316] 0
x[317] 1
x[318] 1
x[319] 0
x[320] 1
x[321] 0
x[322] 0
x[323] 1
x[324] 1
x[325] 1
x[326] 1
x[327] 0
x[328] 1
x[329] 1
x[330] 0
x[331] 1
x[332] 1
x[333] 0
x[334] 1
x[335] 1
x[336] 0
x[337] 1
x[338] 0
x[339] 1
x[340] 1
x[341] 1
x[342] 1
x[343] 0
x[344] 0
x[345] 0
x[346] 0
x[347] 0
x[348] 1
x[349] 0
x[350] 0
x[351] 1
x[352] 0
x[353] 0
x[354] 1
x[355] 1
x[356] 1
x[357] 1
x[358] 0
x[359] 1
x[360] 0
x[361] 1
x[362] 1
x[363] 1
x[364] 0
x[365] 0
x[366] 1
x[367] 1
x[368] 0
x[369] 1
x[370] 1
x[371] 1
x[372] 1
x[373] 1
x[374] 0
x[375] 0
x[376] 0
x[377] 1
x[378] 0
x[379] 1
x[380] 0
x[381] 0
x[382] 1
x[383] 0
x[384] 1
x[385] 1
x[386] 0
x[387] 0
x[388] 1
x[389] 0
x[390] 1
x[391] 0
x[392] 0
x[393] 0
x[394] 1
x[395] 1
x[396] 0
x[397] 0
x[398] 0
x[399] 0
x[400] 0
x[401] 0
x[402] 0
x[403] 0
x[404] 1
x[405] 0
x[406] 1
x[407] 1
x[408] 0
x[409] 1
x[410] 0
x[411] 0
x[412] 1
x[413] 1
x[414] 1
x[415] 0
x[416] 1
x[417] 0
x[418] 0
x[419] 0
x[420] 1
x[421] 1
x[422] 1
x[423] 0
x[424] 1
x[425] 0
x[426] 1
x[427] 1
x[428] 0
x[429] 0
x[430] 1
x[431] 1
x[432] 0
x[433] 1
x[434] 1
x[435] 1
x[436] 0
x[437] 1
x[438] 0
x[439] 0
x[440] 0
x[441] 1
x[442] 1
x[443] 1
x[444] 0
x[445] 0
x[446] 1
x[447] 1
x[448] 0
x[449] 1
x[450] 0
x[451] 0
x[452] 0
x[453] 0
x[454] 0
x[455] 0
x[456] 0
x[457] 0
x[458] 1
x[459] 1
x[460] 0
x[461] 1
x[462] 0
x[463] 1
x[464] 0
x[465] 1
x[466] 1
x[467] 0
x[468] 0
x[469] 1
x[470] 1
x[471] 0
x[472] 0
x[473] 0
x[474] 1
x[475] 0
x[476] 0
x[477] 0
x[478] 0
x[479] 0
x[480] 0
x[481] 0
x[482] 1
x[483] 0
x[484] 0
x[485] 0
x[486] 1
x[487] 1
x[488] 0
x[489] 0
x[490] 0
x[491] 0
x[492] 1
x[493] 1
x[494] 0
x[495] 1
x[496] 1
x[497] 0
x[498] 0
x[499] 1
x[500] 0
x[501] 0
x[502] 1
x[503] 0
x[504] 1
x[505] 1
x[506] 0
x[507] 1
x[508] 1
x[509] 0
x[510] 1
x[511] 0
x[512] 1
x[513] 0
x[514] 1
x[515] 0
x[516] 1
x[517] 0
x[518] 0
x[519] 0
x[520] 1
x[521] 0
x[522] 1
x[523] 1
x[524] 1
x[525] 1
x[526] 1
x[527] 0
x[528] 0
x[529] 0
x[530] 1
x[531] 0
x[532] 1
x[533] 0
x[534] 1
x[535] 0
x[536] 1
x[537] 0
x[538] 1
x[539] 0
x[540] 1
x[541] 0
x[542] 0
x[543] 1
x[544] 0
x[545] 0
x[546] 1
x[547] 1
x[548] 0
x[549] 1
x[550] 1
x[551] 1
x[552] 1
x[553] 0
x[554] 0
x[555] 0
x[556] 0
x[557] 0
x[558] 0
x[559] 1
x[560] 0
x[561] 1
x[562] 0
x[563] 0
x[564] 1
x[565] 0
x[566] 1
x[567] 0
x[568] 1
x[569] 0
x[570] 0
x[571] 1
x[572] 0
x[573] 1
x[574] 1
x[575] 1
x[576] 1
x[577] 1
x[578] 0
x[579] 0
x[580] 1
x[581] 0
x[582] 1
x[583] 1
x[584] 1
x[585] 4.4544437879616967e-07
x[586] 0
x[587] 1
x[588] 1
x[589] 0
x[590] 0
x[591] 0
x[592] 1
x[593] 1
x[594] 1
x[595] 0
x[596] 1
x[597] 1
x[598] 0
x[599] 1
x[600] 1
x[601] 1
x[602] 1
x[603] 0
x[604] 1
x[605] 0
x[606] 1
x[607] 1
x[608] 1
x[609] 0
x[610] 0
x[611] 0
x[612] 1
x[613] 1
x[614] 1
x[615] 1
x[616] 1
x[617] 0
x[618] 0
x[619] 1
x[620] 0
x[621] 0
x[622] 0
x[623] 1
x[624] 0
x[625] 1
x[626] 1
x[627] 0
x[628] 0
x[629] 0
x[630] 0
x[631] 1
x[632] 0
x[633] 0
x[634] 0
x[635] 0
x[636] 1
x[637] 0
x[638] 1
x[639] 0
x[640] 1
x[641] 0
x[642] 1
x[643] 1
x[644] 0
x[645] 0
x[646] 1
x[647] 1
x[648] 0
x[649] 0
x[650] 1
x[651] 0
x[652] 0
x[653] 0
x[654] 1
x[655] 1
x[656] 1
x[657] 1
x[658] 0
x[659] 0
x[660] 1
x[661] 1
x[662] 0
x[663] 1
x[664] 0
x[665] 0
x[666] 1
x[667] 1
x[668] 0
x[669] 0
x[670] 0
x[671] 0
x[672] 1
x[673] 0
x[674] 1
x[675] 0
x[676] 1
x[677] 1
x[678] 1
x[679] 0
x[680] 1
x[681] 1
x[682] 1
x[683] 0
x[684] 0
x[685] 0
x[686] 0
x[687] 1
x[688] 1
x[689] 1
x[690] 0
x[691] 0
x[692] 0
x[693] 0
x[694] 1
x[695] 1
x[696] 0
x[697] 0
x[698] 1
x[699] 0
x[700] 1
x[701] 0
x[702] 0
x[703] 0
x[704] 0
x[705] 0
x[706] 0
x[707] 0
x[708] 0
x[709] 1
x[710] 0
x[711] 0
x[712] 1
x[713] 1
x[714] 0
x[715] 1
x[716] 0
x[717] 1
x[718] 1
x[719] 1
x[720] 1
x[721] 1
x[722] 1
x[723] 1
x[724] 0
x[725] 1
x[726] 1
x[727] 1
x[728] 0
x[729] 1
x[730] 0
x[731] 0
x[732] 0
x[733] 0
x[734] 1
x[735] 1
x[736] 1
x[737] 0
x[738] 0
x[739] 0
x[740] 1
x[741] 0
x[742] 0
x[743] 1
x[744] 1
x[745] 0
x[746] 1
x[747] 1
x[748] 1
x[749] 0
x[750] 1
x[751] 1
x[752] 1
x[753] 0
x[754] 0
x[755] 1
x[756] 1
x[757] 0
x[758] 1
x[759] 1
x[760] 0
x[761] 1
x[762] 0
x[763] 1
x[764] 0
x[765] 1
x[766] 0
x[767] 0
x[768] 1
x[769] 1
x[770] 0
x[771] 0
x[772] 1
x[773] 1
x[774] 1
x[775] 0
x[776] 1
x[777] 0
x[778] 1
x[779] 1
x[780] 1
x[781] 0
x[782] 0
x[783] 0
x[784] 0
x[785] 1
x[786] 0
x[787] 0
x[788] 0
x[789] 0
x[790] 0
x[791] 0
x[792] 1
x[793] 1
x[794] 0
x[795] 0
x[796] 1
x[797] 1
x[798] 0
x[799] 0
x[800] 0
x[801] 1
x[802] 0
x[803] 0
x[804] 0
x[805] 0
x[806] 1
x[807] 1
x[808] 1
x[809] 1
x[810] 0
x[811] 0
x[812] 0
x[813] 1
x[814] 0
x[815] 0
x[816] 1
x[817] 0
x[818] 0
x[819] 1
x[820] 1
x[821] 1
x[822] 1
x[823] 1
x[824] 1
x[825] 1
x[826] 0
x[827] 1
x[828] 0
x[829] 0
x[830] 0
x[831] 0
x[832] 1
x[833] 0
x[834] 0
x[835] 0
x[836] 0
x[837] 0
x[838] 0
x[839] 1
x[840] 1
x[841] 1
x[842] 0
x[843] 1
x[844] 0
x[845] 1
x[846] 0
x[847] 1
x[848] 1
x[849] 1
x[850] 0
x[851] 0
x[852] 0
x[853] 1
x[854] 0
x[855] 0
x[856] 1
x[857] 1
x[858] 0
x[859] 0
x[860] 0
x[861] 0
x[862] 1
x[863] 1
x[864] 0
x[865] 0
x[866] 0
x[867] 0
x[868] 0
x[869] 1
x[870] 0
x[871] 1
x[872] 0
x[873] 1
x[874] 1
x[875] 0
x[876] 1
x[877] 1
x[878] 1
x[879] 1
x[880] 0
x[881] 1
x[882] 0
x[883] 0
x[884] 0
x[885] 0
x[886] 1
x[887] 1
x[888] 1
x[889] 1
x[890] 1
x[891] 1
x[892] 0
x[893] 1
x[894] 1
x[895] 1
x[896] 0
x[897] 0
x[898] 0
x[899] 1
x[900] 1
x[901] 1
x[902] 0
x[903] 1
x[904] 1
x[905] 0
x[906] 0
x[907] 0
x[908] 1
x[909] 0
x[910] 0
x[911] 1
x[912] 0
x[913] 1
x[914] 1
x[915] 1
x[916] 0
x[917] 0
x[918] 1
x[919] 1
x[920] 0
x[921] 1
x[922] 1
x[923] 1
x[924] 0
x[925] 1
x[926] 0
x[927] 0
x[928] 0
x[929] 0
x[930] 0
x[931] 0
x[932] 0
x[933] 0
x[934] 0
x[935] 1
x[936] 0
x[937] 1
x[938] 0
x[939] 0
x[940] 0
x[941] 1
x[942] 0
x[943] 1
x[944] 0
x[945] 1
x[946] 0
x[947] 0
x[948] 0
x[949] 1
x[950] 0
x[951] 1
x[952] 1
x[953] 1
x[954] 1
x[955] 0
x[956] 1
x[957] 1
x[958] 0
x[959] 1
x[960] 0
x[961] 0
x[962] 1
x[963] 1
x[964] 0
x[965] 1
x[966] 1
x[967] 0
x[968] 0
x[969] 1
x[970] 1
x[971] 0
x[972] 1
x[973] 1
x[974] 0
x[975] 0
x[976] 0
x[977] 1
x[978] 1
x[979] 0
x[980] 0
x[981] 1
x[982] 1
x[983] 0
x[984] 1
x[985] 1
x[986] 1
x[987] 0
x[988] 1
x[989] 0
x[990] 1
x[991] 1
x[992] 0
x[993] 1
x[994] 0
x[995] 0
x[996] 0
x[997] 0
x[998] 0
x[999] 0
